
        $ From http://www.csplib.org/Problems/prob009/data/helmut.pdf
        $ Problem number 66
        $ Sequence length : 25
        language ESSENCE' 1.0
        letting sizemaster be 276
        letting sizes be sequence(1,5,8,9,11,18,19,21,30,36,41,44,45,46,47,51,53,58,63,69,71,84,87,105,120)
        